predicate fzn_all_different_int(array [int] of var int: x);
predicate count(array [int] of var int: x, var int: y, var int: c);
predicate fixed_fzn_cumulative(array [int] of var int: s, array [int] of int: d, array [int] of int: r, int: b);
predicate global_cardinality(array [int] of var int: x, array [int] of int: cover, array [int] of var int: counts);
predicate maximum_int(var int: m, array [int] of var int: x);
predicate minimum_int(var int: m, array [int] of var int: x);
predicate sliding_sum(int: low, int: up, int: seq, array [int] of var int: vs);
predicate sort(array [int] of var int: x, array [int] of var int: y);
predicate table_bool(array [int] of var bool: x, array [int, int] of bool: t);
predicate table_int(array [int] of var int: x, array [int, int] of int: t);
predicate var_fzn_cumulative(array [int] of var int: s, array [int] of int: d, array [int] of int: r, var int: b);
var bool: BOOL____00001 :: is_defined_var :: var_is_introduced;
var bool: BOOL____00002 :: is_defined_var :: var_is_introduced;
var bool: BOOL____00003 :: is_defined_var :: var_is_introduced;
var bool: BOOL____00004 :: is_defined_var :: var_is_introduced;
var bool: BOOL____00005 :: is_defined_var :: var_is_introduced;
var bool: BOOL____00006 :: is_defined_var :: var_is_introduced;
var bool: BOOL____00007 :: is_defined_var :: var_is_introduced;
var bool: BOOL____00008 :: is_defined_var :: var_is_introduced;
var bool: BOOL____00009 :: is_defined_var :: var_is_introduced;
var bool: BOOL____00010 :: is_defined_var :: var_is_introduced;
var bool: BOOL____00011 :: is_defined_var :: var_is_introduced;
var bool: BOOL____00014 :: is_defined_var :: var_is_introduced;
var bool: BOOL____00015 :: is_defined_var :: var_is_introduced;
var bool: BOOL____00016 :: is_defined_var :: var_is_introduced;
var bool: BOOL____00017 :: is_defined_var :: var_is_introduced;
var bool: BOOL____00018 :: is_defined_var :: var_is_introduced;
var bool: BOOL____00019 :: is_defined_var :: var_is_introduced;
var bool: BOOL____00020 :: is_defined_var :: var_is_introduced;
array [1..3] of var 1..3: p :: output_array([1..3]);
constraint fzn_all_different_int(p);
constraint array_bool_and([BOOL____00002, BOOL____00001], BOOL____00005) :: defines_var(BOOL____00005);
constraint array_bool_and([BOOL____00003, BOOL____00004], BOOL____00006) :: defines_var(BOOL____00006);
constraint array_bool_and([BOOL____00007, BOOL____00001], BOOL____00009) :: defines_var(BOOL____00009);
constraint array_bool_and([BOOL____00008, BOOL____00004], BOOL____00010) :: defines_var(BOOL____00010);
constraint array_bool_and([BOOL____00016, BOOL____00015], BOOL____00019) :: defines_var(BOOL____00019);
constraint array_bool_and([BOOL____00017, BOOL____00018], BOOL____00020) :: defines_var(BOOL____00020);
constraint array_bool_or([BOOL____00001, BOOL____00005, BOOL____00006], true);
constraint array_bool_or([BOOL____00011, BOOL____00009, BOOL____00010], true);
constraint array_bool_or([BOOL____00014, BOOL____00019, BOOL____00020], true);
constraint bool_eq_reif(BOOL____00001, false, BOOL____00004) :: defines_var(BOOL____00004);
constraint bool_eq_reif(BOOL____00014, false, BOOL____00015) :: defines_var(BOOL____00015);
constraint bool_eq_reif(BOOL____00015, false, BOOL____00018) :: defines_var(BOOL____00018);
constraint int_eq_reif(p[1], 1, BOOL____00002) :: defines_var(BOOL____00002);
constraint int_eq_reif(p[1], 2, BOOL____00001) :: defines_var(BOOL____00001);
constraint int_eq_reif(p[1], 3, BOOL____00003) :: defines_var(BOOL____00003);
constraint int_eq_reif(p[2], 1, BOOL____00007) :: defines_var(BOOL____00007);
constraint int_eq_reif(p[2], 2, BOOL____00011) :: defines_var(BOOL____00011);
constraint int_eq_reif(p[2], 3, BOOL____00008) :: defines_var(BOOL____00008);
constraint int_eq_reif(p[3], 1, BOOL____00016) :: defines_var(BOOL____00016);
constraint int_eq_reif(p[3], 2, BOOL____00014) :: defines_var(BOOL____00014);
constraint int_eq_reif(p[3], 3, BOOL____00017) :: defines_var(BOOL____00017);
solve satisfy;
